20180607 150 0 0 0
20170526 20 0 0 0
20160614 30 0 0 0
20150529 30 0 0 0
20140520 30 0 0 0
20130607 20 0 0 0
20120629 40 0 0 0
20110722 40 0 0 0
20100709 100 0 0 0
20090624 80 0 0 0
20070531 100 0 0 0
20060420 150 3500 0 0
20060123 0 3400 0 0
20050426 60 0 0 0
20040429 70 0 0 0
20030424 60 0 0 0
20020606 80 0 0 0
20010403 100 5000 0 0
